60 4
4 2 45
6 3 39
6 5 49
4 3 38
5 2 48
5 4 34
5 1 45
5 1 33
4 5 40
3 3 46
1 4 40
6 2 41
3 1 42
3 3 49
1 1 49
4 5 31
3 1 43
5 5 33
5 3 33
5 4 39
2 4 49
5 4 35
4 2 49
6 1 47
6 2 45
3 2 36
5 5 49
6 3 42
4 1 49
1 3 37
4 4 48
1 2 35
2 5 49
4 2 50
6 5 41
4 4 33
5 1 40
1 3 50
4 1 48
4 4 34
4 4 38
6 3 31
6 4 44
5 4 30
4 3 50
5 2 49
3 5 50
1 3 40
2 3 44
5 3 33
5 4 37
6 2 44
4 3 48
3 1 45
2 2 49
3 3 36
2 2 37
1 4 33
2 1 37
3 3 42
46 31 39 50
